examples/cbmc/constant_oracle
#!/bin/bash

if [ "$1" = "5" ] ; then
  echo "true"
else
  echo "false"
fi


